2	17	1	8	29	100	0	0	0	0	0	0
1400	1	0	0	0	0	0	0	0	0	0	0
1400	1	0	0	0	0	0	0	0	0	0	0
175	1	0	117.66	2.29	1	0	0	0	0	0	0
175	1	0	117.66	2.29	1	0	0	0	0	0	0
175	1	0	117.66	2.29	1	0	0	0	0	0	0
175	1	0	117.66	2.29	1	0	0	0	0	0	0
175	1	0	117.66	2.29	1	0	0	0	0	0	0
175	1	0	117.66	2.29	1	0	0	0	0	0	0
175	1	0	117.66	2.29	1	0	0	0	0	0	0
175	1	0	117.66	2.29	1	0	0	0	0	0	0
175	1	0	117.66	2.29	1	0	0	0	0	0	0
175	1	0	117.66	2.29	1	0	0	0	0	0	0
175	1	0	117.66	2.29	1	0	0	0	0	0	0
175	1	0	117.66	2.29	1	0	0	0	0	0	0
175	1	0	117.66	2.29	1	0	0	0	0	0	0
175	1	0	117.66	2.29	1	0	0	0	0	0	0
175	1	0	117.66	2.29	1	0	0	0	0	0	0
175	1	0	117.66	2.29	1	0	0	0	0	0	0
175	1	0	117.66	2.29	1	0	0	0	0	0	0
50	150	0	0	0	0	3390	0	0	99999	0	0
25	25	0	0	0	0	3390	0	0	99999	0	0
50	25	0	0	0	0	3390	0	0	99999	0	0
75	25	0	0	0	0	3390	0	0	99999	0	0
25	50	0	0	0	0	3390	0	0	99999	0	0
75	50	0	0	0	0	3390	0	0	99999	0	0
25	75	0	0	0	0	3390	0	0	99999	0	0
50	75	0	0	0	0	3390	0	0	99999	0	0
75	75	0	0	0	0	3390	0	0	99999	0	0
25	25	0	0	0	0	3390	0	0	0	0	0
50	25	0	0	0	0	3390	0	0	0	0	0
75	25	0	0	0	0	3390	0	0	0	0	0
25	50	0	0	0	0	3390	0	0	0	0	0
75	50	0	0	0	0	3390	0	0	0	0	0
25	75	0	0	0	0	3390	0	0	0	0	0
50	75	0	0	0	0	3390	0	0	0	0	0
75	75	0	0	0	0	3390	0	0	0	0	0
40      50      0       0       0       0       1236    0       0       0       0       0
73      52      0       0       0       0       1236    0       0       0       0       0
90      55      0       0       0       0       1236    0       0       0       0       0
55      79      0       0       0       0       1236    0       0       0       0       0
69      89      0       0       0       0       1236    0       0       0       0       0
32      80      0       0       0       0       1236    0       0       0       0       0
39      96      0       0       0       0       1236    0       0       0       0       0
23      80      0       0       0       0       1236    0       0       0       0       0
4	83	0	0	0	0	3390	0	0	0	0	0
18	58	0	0	0	0	3390	0	0	0	0	0
1	56	0	0	0	0	3390	0	0	0	0	0
13	31	0	0	0	0	3390	0	0	0	0	0
-5	38	0	0	0	0	3390	0	0	0	0	0
26	37	0	0	0	0	3390	0	0	0	0	0
28	13	0	0	0	0	3390	0	0	0	0	0
39	31	0	0	0	0	3390	0	0	0	0	0
48	11	0	0	0	0	3390	0	0	0	0	0
59	17	0	0	0	0	3390	0	0	0	0	0
73	23	0	0	0	0	3390	0	0	0	0	0
74	32	0	0	0	0	3390	0	0	0	0	0
90	44	0	0	0	0	3390	0	0	0	0	0
52	75	10	7	3	847	1487	90	0	0	0	0
45	70	30	19	11	945	1585	90	0	0	0	0
62	69	10	9	1	131	771	90	0	0	0	0
60	66	10	9	1	127	767	90	0	0	0	0
42	65	10	6	4	1133	1773	90	0	0	0	0
16	42	20	8	12	2405	3045	90	0	0	0	0
58	70	20	17	3	128	768	90	0	0	0	0
34	60	20	11	9	113	753	90	0	0	0	0
28	70	10	4	6	125	765	90	0	0	0	0
35	66	10	5	5	118	758	90	0	0	0	0
35	69	10	5	5	121	761	90	0	0	0	0
25	85	20	6	14	369	1009	90	0	0	0	0
22	75	30	9	21	177	817	90	0	0	0	0
22	85	10	3	7	462	1102	90	0	0	0	0
20	80	40	10	30	272	912	90	0	0	0	0
20	85	40	9	31	554	1194	90	0	0	0	0
18	75	20	5	15	839	1479	90	0	0	0	0
15	75	20	4	16	746	1386	90	0	0	0	0
15	80	10	2	8	651	1291	90	0	0	0	0
30	50	10	6	4	2751	3391	90	0	0	0	0
30	56	20	11	9	2749	3389	90	0	0	0	0
28	52	20	11	9	2748	3388	90	0	0	0	0
14	66	10	2	8	1037	1677	90	0	0	0	0
25	50	10	5	5	2746	3386	90	0	0	0	0
22	66	40	13	27	939	1579	90	0	0	0	0
8	62	10	1	9	1135	1775	90	0	0	0	0
23	52	10	4	6	2693	3333	90	0	0	0	0
4	55	20	1	19	1454	2094	90	0	0	0	0
20	50	10	4	6	2503	3143	90	0	0	0	0
20	55	10	4	6	2598	3238	90	0	0	0	0
10	35	20	6	14	2121	2761	90	0	0	0	0
10	40	30	8	22	2308	2948	90	0	0	0	0
8	40	40	8	32	2216	2856	90	0	0	0	0
8	45	20	4	16	1555	2195	90	0	0	0	0
5	35	10	1	9	2026	2666	90	0	0	0	0
5	45	10	1	9	1648	2288	90	0	0	0	0
2	40	20	1	19	1930	2570	90	0	0	0	0
0	40	30	0	30	1838	2478	90	0	0	0	0
0	45	20	0	20	1743	2383	90	0	0	0	0
36	18	10	5	5	829	1469	90	0	0	0	0
35	32	10	9	1	120	760	90	0	0	0	0
33	32	20	19	1	121	761	90	0	0	0	0
33	35	10	9	1	118	758	90	0	0	0	0
32	20	10	6	4	735	1375	90	0	0	0	0
30	30	10	10	0	543	1183	90	0	0	0	0
34	25	30	22	8	639	1279	90	0	0	0	0
30	35	10	9	1	168	808	90	0	0	0	0
36	40	10	9	1	112	752	90	0	0	0	0
48	20	10	4	6	1820	2460	90	0	0	0	0
26	32	10	8	2	356	996	90	0	0	0	0
25	30	10	8	2	448	1088	90	0	0	0	0
25	35	10	7	3	263	903	90	0	0	0	0
44	5	20	2	18	1532	2172	90	0	0	0	0
42	10	40	10	30	1627	2267	90	0	0	0	0
42	15	10	4	6	1722	2362	90	0	0	0	0
40	5	30	4	26	1438	2078	90	0	0	0	0
38	15	40	16	24	1062	1702	90	0	0	0	0
38	5	30	4	26	1346	1986	90	0	0	0	0
38	10	10	3	7	1157	1797	90	0	0	0	0
35	5	20	3	17	1253	1893	90	0	0	0	0
50	30	10	6	4	2200	2840	90	0	0	0	0
50	35	20	14	6	2481	3121	90	0	0	0	0
50	40	50	40	10	1771	2411	90	0	0	0	0
48	30	10	6	4	2108	2748	90	0	0	0	0
44	25	10	6	4	1917	2557	90	0	0	0	0
47	35	10	7	3	2574	3214	90	0	0	0	0
47	40	10	9	1	1864	2504	90	0	0	0	0
42	30	10	7	3	2012	2652	90	0	0	0	0
45	35	10	8	2	2666	3306	90	0	0	0	0
95	30	30	9	21	896	1536	90	0	0	0	0
95	35	20	7	13	801	1441	90	0	0	0	0
53	30	10	6	4	2293	2933	90	0	0	0	0
92	30	10	3	7	989	1629	90	0	0	0	0
53	35	50	33	17	2388	3028	90	0	0	0	0
45	65	20	14	6	1040	1680	90	0	0	0	0
90	35	10	4	6	706	1346	90	0	0	0	0
72	45	10	6	4	1475	2115	90	0	0	0	0
78	40	20	10	10	1377	2017	90	0	0	0	0
87	30	10	3	7	1183	1823	90	0	0	0	0
85	25	10	3	7	1088	1728	90	0	0	0	0
85	35	30	12	18	1278	1918	90	0	0	0	0
75	55	20	15	5	369	1009	90	0	0	0	0
72	55	10	8	2	276	916	90	0	0	0	0
70	58	20	17	3	182	822	90	0	0	0	0
86	46	30	16	14	604	1244	90	0	0	0	0
66	55	10	8	2	128	768	90	0	0	0	0
64	46	20	14	6	1573	2213	90	0	0	0	0
65	60	30	28	2	128	768	90	0	0	0	0
56	64	10	9	1	123	763	90	0	0	0	0
60	55	10	9	1	122	762	90	0	0	0	0
60	60	10	10	0	124	764	90	0	0	0	0
67	85	20	16	4	464	1104	90	0	0	0	0
42	58	40	29	11	1230	1870	90	0	0	0	0
65	82	10	8	2	370	1010	90	0	0	0	0
62	80	30	23	7	277	917	90	0	0	0	0
62	40	10	6	4	1669	2309	90	0	0	0	0
60	85	30	21	9	561	1201	90	0	0	0	0
58	75	20	15	5	180	820	90	0	0	0	0
55	80	10	7	3	751	1391	90	0	0	0	0
55	85	20	13	7	656	1296	90	0	0	0	0

